c This is QMaxSAT 2017 based on 14.07
c This is Glucose 3.0
c This is MiniSat 2.2.0
c WARNING: for repeatability, setting FPU to use double precision
c card = mrwto, comp = 0, pmodel = 0, narr = 6, mct = 52, verb = 0
cr firstCPXsol 0 0 0
c top = 1525567
c |  Number of variables:    146274                                           |
c |  Number of clauses:      164404224                                        |
c |  Weight of hard clauses: 1525567                                          |
c |  Number of soft clauses: 15912                                            |
c |  Number of unit soft clauses: 15912                                       |
c |  Maximum Cardinality (by unit): 9153396      (9153396     )               |
c last restart ## conflicts  :  0 2925 
o 5418 | cpuTime 16.0148 s
c Sum of weights = 1525566
c A number of soft clauses remained = 2652
c MRWTO encoding for Pseudo-Boolean Constraints
c sizeMax=5418
c No.0 Divisor=9	generated by pow1
c No.1 Divisor=9	generated by pow1
c No.2 Divisor=9	generated by pow1
c No.3 Divisor=9	generated by pow1
c p0= 9	p1= 9	p2= 9	p3= 9	
c number of digits = 5
c linkingVar[0].size = 9, linkingVar[1].size = 9, linkingVar[2].size = 9, linkingVar[3].size = 8, linkingVar[4].size = 1, 
c Pseudo-Boolean Constraints: 68260 variables and 555467 clauses
c Sum of weights = 1525566
c A number of soft clauses remained = 2652
c MRWTO encoding for Pseudo-Boolean Constraints
c sizeMax=5418
c No.0 Divisor=9	generated by pow1
c No.1 Divisor=9	generated by pow1
c No.2 Divisor=9	generated by pow1
c No.3 Divisor=9	generated by pow1
c p0= 9	p1= 9	p2= 9	p3= 9	
c number of digits = 5
c linkingVar[0].size = 9, linkingVar[1].size = 9, linkingVar[2].size = 9, linkingVar[3].size = 8, linkingVar[4].size = 1, 
c Pseudo-Boolean Constraints: 68260 variables and 555467 clauses
c Sum of weights = 1525566
c A number of soft clauses remained = 2652
c MRWTO encoding for Pseudo-Boolean Constraints
c sizeMax=5418
c No.0 Divisor=9	generated by pow1
c No.1 Divisor=9	generated by pow1
c No.2 Divisor=9	generated by pow1
c No.3 Divisor=9	generated by pow1
c p0= 9	p1= 9	p2= 9	p3= 9	
c number of digits = 5
c linkingVar[0].size = 9, linkingVar[1].size = 9, linkingVar[2].size = 9, linkingVar[3].size = 8, linkingVar[4].size = 1, 
c Pseudo-Boolean Constraints: 68260 variables and 555467 clauses
c Sum of weights = 1525566
c A number of soft clauses remained = 2652
c MRWTO encoding for Pseudo-Boolean Constraints
c sizeMax=5418
c No.0 Divisor=9	generated by pow1
c No.1 Divisor=9	generated by pow1
c No.2 Divisor=9	generated by pow1
c No.3 Divisor=9	generated by pow1
c p0= 9	p1= 9	p2= 9	p3= 9	
c number of digits = 5
c linkingVar[0].size = 9, linkingVar[1].size = 9, linkingVar[2].size = 9, linkingVar[3].size = 8, linkingVar[4].size = 1, 
c Pseudo-Boolean Constraints: 68260 variables and 555467 clauses
c Sum of weights = 1525566
c A number of soft clauses remained = 2652
c MRWTO encoding for Pseudo-Boolean Constraints
c sizeMax=5418
c No.0 Divisor=9	generated by pow1
c No.1 Divisor=9	generated by pow1
c No.2 Divisor=9	generated by pow1
c No.3 Divisor=9	generated by pow1
c p0= 9	p1= 9	p2= 9	p3= 9	
c number of digits = 5
c linkingVar[0].size = 9, linkingVar[1].size = 9, linkingVar[2].size = 9, linkingVar[3].size = 8, linkingVar[4].size = 1, 
c Pseudo-Boolean Constraints: 68260 variables and 555467 clauses
c Sum of weights = 1525566
c A number of soft clauses remained = 2652
c MRWTO encoding for Pseudo-Boolean Constraints
c sizeMax=5418
c No.0 Divisor=9	generated by pow1
c No.1 Divisor=9	generated by pow1
c No.2 Divisor=9	generated by pow1
c No.3 Divisor=9	generated by pow1
c p0= 9	p1= 9	p2= 9	p3= 9	
c number of digits = 5
c linkingVar[0].size = 9, linkingVar[1].size = 9, linkingVar[2].size = 9, linkingVar[3].size = 8, linkingVar[4].size = 1, 
c Pseudo-Boolean Constraints: 68260 variables and 555467 clauses
c last restart ## conflicts  :  837 23522 
o 5379 | cpuTime 2903.88 s
s UNKNOWN
c Search is stopped by a limit (maybe time-limit)
cr positiVarArr: [ | 28@1(1->28) | 104@1(2->52) | 1395@1(27->43) | 1406@1(28->2) | 1873@1(37->1) | 2221@1(43->37) | 2679@1(52->27) | 2753@2(1->49) | 2950@2(5->38) | 2979@2(6->15) | 3327@2(12->51) | 3465@2(15->33) | 3610@2(18->22) | 3828@2(22->32) | 3948@2(24->48) | 3958@2(25->6) | 4282@2(31->18) | 4366@2(32->50) | 4380@2(33->12) | 4508@2(35->36) | 4529@2(36->5) | 4668@2(38->40) | 4757@2(40->25) | 5179@2(48->31) | 5235@2(49->35) | 5253@2(50->1) | 5328@2(51->24) | 5453@3(1->45) | 5764@3(7->44) | 5773@3(8->1) | 7652@3(44->8) | 7703@3(45->7) | 8153@4(1->41) | 8226@4(3->10) | 8581@4(10->1) | 8766@4(13->30) | 8895@4(16->3) | 8970@4(17->26) | 9425@4(26->13) | 9636@4(30->16) | 10209@4(41->17) | 10830@5(1->14) | 11014@5(4->42) | 11236@5(9->4) | 11501@5(14->9) | 11857@5(21->1) | 12969@5(42->21) | 13559@6(1->39) | 14060@6(11->20) | 14490@6(19->34) | 14509@6(20->1) | 14675@6(23->11) | 14999@6(29->23) | 15282@6(34->46) | 15515@6(39->19) | 15907@6(46->47) | 15941@6(47->29) | ]
cr the 1-th chain: [ 1->28->2->52->27->43->37->1 ] (#non-depot=6) {#cumul.=7}
cr the 2-th chain: [ 1->49->35->36->5->38->40->25->6->15->33->12->51->24->48->31->18->22->32->50->1 ] (#non-depot=19) {#cumul.=26}
cr the 3-th chain: [ 1->45->7->44->8->1 ] (#non-depot=4) {#cumul.=30}
cr the 4-th chain: [ 1->41->17->26->13->30->16->3->10->1 ] (#non-depot=8) {#cumul.=38}
cr the 5-th chain: [ 1->14->9->4->42->21->1 ] (#non-depot=5) {#cumul.=43}
cr the 6-th chain: [ 1->39->19->34->46->47->29->23->11->20->1 ] (#non-depot=9) {#cumul.=52}
c Latest Answer = 0 by 2 loops
c restarts              : 10619
c conflicts             : 3071453        (858 /sec)
c decisions             : 143576958      (0.00 % random) (40118 /sec)
c propagations          : 19695689404    (5503311 /sec)
c conflict literals     : 3736078254     (13.82 % deleted)
c Memory used           : 14194.00 MB
c CPU time              : 3578.88 s
